45
1 0 7
2 0 2
2 1 5
3 0 2
3 1 8
3 2 5
4 0 3
4 1 10
4 2 8
4 3 3
5 0 3
5 1 6
5 2 4
5 3 6
5 4 2
6 0 5
6 1 9
6 2 10
6 3 8
6 4 10
6 5 1
7 0 2
7 1 4
7 2 5
7 3 10
7 4 2
7 5 8
7 6 2
8 0 4
8 1 8
8 2 4
8 3 6
8 4 5
8 5 4
8 6 2
8 7 5
9 0 7
9 1 2
9 2 7
9 3 4
9 4 1
9 5 4
9 6 8
9 7 5
9 8 2
10 0 9
10 1 2
10 2 1
10 3 1
10 4 7
10 5 10
10 6 5
10 7 5
10 8 8
10 9 1
11 0 4
11 1 7
11 2 10
11 3 2
11 4 7
11 5 7
11 6 6
11 7 2
11 8 2
11 9 3
11 10 4
12 0 8
12 1 6
12 2 8
12 3 9
12 4 7
12 5 6
12 6 3
12 7 7
12 8 6
12 9 7
12 10 4
12 11 2
13 0 7
13 1 5
13 2 5
13 3 9
13 4 7
13 5 8
13 6 7
13 7 8
13 8 9
13 9 2
13 10 8
13 11 7
13 12 6
14 0 5
14 1 4
14 2 7
14 3 7
14 4 3
14 5 6
14 6 1
14 7 8
14 8 7
14 9 8
14 10 8
14 11 4
14 12 2
14 13 1
15 0 9
15 1 8
15 2 9
15 3 6
15 4 8
15 5 2
15 6 6
15 7 9
15 8 2
15 9 10
15 10 9
15 11 6
15 12 9
15 13 2
15 14 5
16 0 1
16 1 5
16 2 2
16 3 7
16 4 7
16 5 3
16 6 1
16 7 4
16 8 4
16 9 10
16 10 8
16 11 5
16 12 1
16 13 10
16 14 9
16 15 6
17 0 9
17 1 8
17 2 5
17 3 2
17 4 7
17 5 5
17 6 1
17 7 4
17 8 5
17 9 2
17 10 8
17 11 8
17 12 8
17 13 6
17 14 3
17 15 9
17 16 4
18 0 2
18 1 4
18 2 10
18 3 9
18 4 7
18 5 6
18 6 5
18 7 3
18 8 1
18 9 10
18 10 4
18 11 3
18 12 1
18 13 1
18 14 6
18 15 8
18 16 8
18 17 4
19 0 7
19 1 7
19 2 2
19 3 5
19 4 8
19 5 9
19 6 8
19 7 6
19 8 9
19 9 8
19 10 6
19 11 1
19 12 10
19 13 7
19 14 1
19 15 5
19 16 10
19 17 1
19 18 7
20 0 6
20 1 1
20 2 9
20 3 6
20 4 1
20 5 7
20 6 3
20 7 5
20 8 4
20 9 8
20 10 2
20 11 9
20 12 3
20 13 10
20 14 1
20 15 2
20 16 9
20 17 2
20 18 3
20 19 4
21 0 2
21 1 7
21 2 2
21 3 5
21 4 8
21 5 8
21 6 3
21 7 3
21 8 4
21 9 2
21 10 1
21 11 5
21 12 1
21 13 7
21 14 5
21 15 4
21 16 7
21 17 6
21 18 2
21 19 2
21 20 2
22 0 5
22 1 9
22 2 8
22 3 2
22 4 9
22 5 8
22 6 3
22 7 7
22 8 10
22 9 8
22 10 9
22 11 1
22 12 6
22 13 8
22 14 6
22 15 7
22 16 7
22 17 6
22 18 4
22 19 3
22 20 2
22 21 5
23 0 8
23 1 5
23 2 7
23 3 6
23 4 6
23 5 3
23 6 3
23 7 10
23 8 2
23 9 8
23 10 4
23 11 8
23 12 4
23 13 3
23 14 3
23 15 5
23 16 2
23 17 2
23 18 8
23 19 10
23 20 9
23 21 2
23 22 5
24 0 8
24 1 3
24 2 3
24 3 7
24 4 1
24 5 6
24 6 3
24 7 9
24 8 10
24 9 4
24 10 10
24 11 7
24 12 9
24 13 7
24 14 3
24 15 4
24 16 10
24 17 6
24 18 7
24 19 8
24 20 4
24 21 5
24 22 5
24 23 6
25 0 9
25 1 2
25 2 8
25 3 2
25 4 2
25 5 1
25 6 8
25 7 3
25 8 9
25 9 1
25 10 5
25 11 6
25 12 6
25 13 7
25 14 1
25 15 5
25 16 5
25 17 7
25 18 8
25 19 5
25 20 7
25 21 6
25 22 4
25 23 2
25 24 8
26 0 5
26 1 6
26 2 9
26 3 5
26 4 10
26 5 2
26 6 5
26 7 5
26 8 9
26 9 8
26 10 3
26 11 4
26 12 9
26 13 9
26 14 6
26 15 4
26 16 10
26 17 3
26 18 2
26 19 10
26 20 3
26 21 5
26 22 7
26 23 3
26 24 5
26 25 10
27 0 5
27 1 4
27 2 9
27 3 9
27 4 1
27 5 5
27 6 8
27 7 9
27 8 10
27 9 1
27 10 7
27 11 7
27 12 4
27 13 3
27 14 8
27 15 5
27 16 7
27 17 3
27 18 1
27 19 8
27 20 8
27 21 8
27 22 1
27 23 10
27 24 1
27 25 3
27 26 1
28 0 3
28 1 2
28 2 1
28 3 6
28 4 1
28 5 7
28 6 7
28 7 8
28 8 3
28 9 6
28 10 9
28 11 6
28 12 3
28 13 5
28 14 4
28 15 4
28 16 10
28 17 5
28 18 2
28 19 1
28 20 2
28 21 7
28 22 10
28 23 10
28 24 1
28 25 9
28 26 2
28 27 5
29 0 1
29 1 4
29 2 6
29 3 9
29 4 8
29 5 4
29 6 3
29 7 3
29 8 8
29 9 7
29 10 7
29 11 6
29 12 1
29 13 2
29 14 6
29 15 10
29 16 7
29 17 9
29 18 4
29 19 1
29 20 6
29 21 9
29 22 10
29 23 10
29 24 1
29 25 5
29 26 5
29 27 1
29 28 2
30 0 10
30 1 1
30 2 7
30 3 1
30 4 4
30 5 4
30 6 8
30 7 4
30 8 6
30 9 3
30 10 7
30 11 3
30 12 2
30 13 9
30 14 7
30 15 4
30 16 10
30 17 3
30 18 6
30 19 6
30 20 6
30 21 6
30 22 3
30 23 9
30 24 9
30 25 9
30 26 10
30 27 3
30 28 3
30 29 2
31 0 8
31 1 9
31 2 3
31 3 2
31 4 7
31 5 9
31 6 2
31 7 7
31 8 2
31 9 5
31 10 5
31 11 2
31 12 4
31 13 6
31 14 8
31 15 6
31 16 7
31 17 6
31 18 9
31 19 9
31 20 2
31 21 7
31 22 1
31 23 4
31 24 9
31 25 1
31 26 10
31 27 1
31 28 6
31 29 7
31 30 3
32 0 2
32 1 2
32 2 10
32 3 5
32 4 8
32 5 10
32 6 6
32 7 3
32 8 3
32 9 5
32 10 9
32 11 10
32 12 5
32 13 8
32 14 6
32 15 7
32 16 9
32 17 5
32 18 9
32 19 8
32 20 1
32 21 10
32 22 8
32 23 2
32 24 2
32 25 6
32 26 6
32 27 2
32 28 5
32 29 10
32 30 6
32 31 2
33 0 2
33 1 5
33 2 10
33 3 5
33 4 6
33 5 7
33 6 2
33 7 3
33 8 7
33 9 4
33 10 6
33 11 7
33 12 7
33 13 5
33 14 9
33 15 10
33 16 10
33 17 7
33 18 2
33 19 2
33 20 9
33 21 2
33 22 5
33 23 1
33 24 7
33 25 8
33 26 8
33 27 9
33 28 5
33 29 1
33 30 6
33 31 10
33 32 5
34 0 9
34 1 1
34 2 10
34 3 3
34 4 1
34 5 1
34 6 5
34 7 5
34 8 10
34 9 3
34 10 6
34 11 1
34 12 4
34 13 6
34 14 7
34 15 1
34 16 6
34 17 5
34 18 5
34 19 10
34 20 6
34 21 5
34 22 6
34 23 7
34 24 2
34 25 8
34 26 6
34 27 4
34 28 4
34 29 5
34 30 7
34 31 7
34 32 1
34 33 3
35 0 3
35 1 5
35 2 4
35 3 8
35 4 8
35 5 3
35 6 10
35 7 5
35 8 7
35 9 3
35 10 4
35 11 7
35 12 4
35 13 8
35 14 3
35 15 9
35 16 7
35 17 7
35 18 7
35 19 5
35 20 4
35 21 7
35 22 3
35 23 10
35 24 2
35 25 2
35 26 3
35 27 10
35 28 6
35 29 4
35 30 10
35 31 3
35 32 8
35 33 10
35 34 1
36 0 7
36 1 10
36 2 1
36 3 8
36 4 4
36 5 8
36 6 9
36 7 3
36 8 2
36 9 6
36 10 10
36 11 1
36 12 8
36 13 8
36 14 6
36 15 7
36 16 1
36 17 7
36 18 6
36 19 2
36 20 8
36 21 10
36 22 3
36 23 4
36 24 6
36 25 2
36 26 5
36 27 2
36 28 3
36 29 10
36 30 4
36 31 10
36 32 7
36 33 8
36 34 5
36 35 9
37 0 2
37 1 1
37 2 1
37 3 3
37 4 1
37 5 8
37 6 7
37 7 2
37 8 9
37 9 3
37 10 8
37 11 8
37 12 7
37 13 4
37 14 3
37 15 2
37 16 10
37 17 4
37 18 10
37 19 5
37 20 6
37 21 10
37 22 2
37 23 1
37 24 5
37 25 4
37 26 4
37 27 5
37 28 5
37 29 10
37 30 4
37 31 3
37 32 6
37 33 8
37 34 7
37 35 6
37 36 7
38 0 6
38 1 10
38 2 4
38 3 8
38 4 6
38 5 2
38 6 3
38 7 10
38 8 8
38 9 4
38 10 6
38 11 9
38 12 1
38 13 5
38 14 9
38 15 4
38 16 10
38 17 8
38 18 1
38 19 7
38 20 2
38 21 6
38 22 5
38 23 10
38 24 8
38 25 8
38 26 1
38 27 3
38 28 6
38 29 1
38 30 2
38 31 8
38 32 1
38 33 6
38 34 9
38 35 5
38 36 8
38 37 7
39 0 8
39 1 2
39 2 3
39 3 1
39 4 2
39 5 7
39 6 5
39 7 9
39 8 2
39 9 9
39 10 3
39 11 8
39 12 5
39 13 1
39 14 9
39 15 9
39 16 10
39 17 2
39 18 8
39 19 3
39 20 8
39 21 8
39 22 9
39 23 6
39 24 4
39 25 7
39 26 7
39 27 8
39 28 5
39 29 3
39 30 7
39 31 1
39 32 3
39 33 7
39 34 4
39 35 1
39 36 8
39 37 10
39 38 4
40 0 6
40 1 10
40 2 10
40 3 6
40 4 9
40 5 10
40 6 9
40 7 9
40 8 6
40 9 10
40 10 3
40 11 1
40 12 10
40 13 3
40 14 10
40 15 9
40 16 8
40 17 7
40 18 6
40 19 5
40 20 4
40 21 10
40 22 3
40 23 8
40 24 5
40 25 4
40 26 8
40 27 5
40 28 3
40 29 3
40 30 8
40 31 7
40 32 5
40 33 6
40 34 6
40 35 6
40 36 9
40 37 5
40 38 10
40 39 3
41 0 5
41 1 4
41 2 1
41 3 10
41 4 9
41 5 3
41 6 7
41 7 4
41 8 10
41 9 10
41 10 3
41 11 6
41 12 6
41 13 8
41 14 10
41 15 3
41 16 4
41 17 4
41 18 6
41 19 6
41 20 5
41 21 1
41 22 10
41 23 10
41 24 8
41 25 4
41 26 10
41 27 6
41 28 7
41 29 7
41 30 4
41 31 4
41 32 10
41 33 6
41 34 1
41 35 9
41 36 5
41 37 3
41 38 7
41 39 5
41 40 4
42 0 9
42 1 10
42 2 7
42 3 1
42 4 9
42 5 9
42 6 10
42 7 6
42 8 5
42 9 9
42 10 2
42 11 8
42 12 4
42 13 10
42 14 3
42 15 6
42 16 9
42 17 5
42 18 10
42 19 7
42 20 7
42 21 4
42 22 6
42 23 4
42 24 5
42 25 6
42 26 2
42 27 8
42 28 8
42 29 10
42 30 5
42 31 4
42 32 7
42 33 8
42 34 8
42 35 3
42 36 2
42 37 7
42 38 6
42 39 9
42 40 10
42 41 10
43 0 1
43 1 8
43 2 7
43 3 4
43 4 8
43 5 6
43 6 10
43 7 5
43 8 4
43 9 9
43 10 6
43 11 6
43 12 6
43 13 2
43 14 6
43 15 5
43 16 7
43 17 7
43 18 2
43 19 8
43 20 1
43 21 1
43 22 8
43 23 5
43 24 4
43 25 5
43 26 2
43 27 3
43 28 2
43 29 6
43 30 3
43 31 2
43 32 4
43 33 2
43 34 7
43 35 5
43 36 2
43 37 9
43 38 2
43 39 6
43 40 9
43 41 8
43 42 6
44 0 10
44 1 6
44 2 8
44 3 10
44 4 3
44 5 3
44 6 8
44 7 9
44 8 7
44 9 5
44 10 4
44 11 3
44 12 10
44 13 9
44 14 10
44 15 9
44 16 5
44 17 7
44 18 3
44 19 4
44 20 3
44 21 9
44 22 10
44 23 3
44 24 6
44 25 6
44 26 2
44 27 4
44 28 5
44 29 8
44 30 9
44 31 10
44 32 6
44 33 5
44 34 1
44 35 10
44 36 5
44 37 9
44 38 9
44 39 8
44 40 9
44 41 4
44 42 3
44 43 9
